(define-fun inv2 ((x!0 Int) (x!1 Int) (x!2 Int) (x!3 Int) (x!4 Int) (x!5 Int)) Bool
  (let ((a!1 (not (>= (+ x!0 (* (- 1) x!4)) 0)))
        (a!2 (not (>= (+ (* 250 x!0) (* (- 1) x!1) x!3 (* (- 250) x!4)) (- 22))))
        (a!3 (not (<= (+ x!2 (* (- 1) x!3) (* 250 x!4)) (- 1))))
        (a!4 (not (>= (+ (* 250 x!0)
                         (* (- 1) x!1)
                         (* (- 1) x!2)
                         x!3
                         (* (- 250) x!4))
                      (- 272))))
        (a!5 (not (>= (+ x!3 (* (- 250) x!4)) 251))))
    (and (or a!1 a!2) (not (<= x!4 0)) a!3 (or (not (>= x!0 1)) a!4) a!5)))

